NAME: PVRP-example
TYPE: CVRP
DIMENSION: 51
NUM_DAYS: 5
CAPACITY: 160
EDGE_WEIGHT_FORMAT: FUNCTION
EDGE_WEIGHT_TYPE: EXACT_2D
NODE_COORD_SECTION
1	7.000 12.000
2	19.000 9.000
3	22.000 24.000
4	-10.000 -14.000
5	10.000 -10.000
6	-9.000 7.000
7	-13.000 23.000
8	1.000 22.000
9	22.000 -7.000
10	21.000 -19.000
11	12.000 1.000
12	1.000 -8.000
13	-25.000 -15.000
14	-18.000 2.000
15	6.000 -24.000
16	22.000 1.000
17	-3.000 -17.000
18	-13.000 -7.000
19	-17.000 -27.000
20	27.000 18.000
21	32.000 2.000
22	12.000 17.000
23	-14.000 17.000
24	-22.000 12.000
25	-23.000 -2.000
26	-3.000 28.000
27	0.000 8.000
28	13.000 27.000
29	28.000 8.000
30	28.000 -13.000
31	7.000 29.000
32	8.000 6.000
33	16.000 -30.000
34	31.000 -7.000
35	32.000 23.000
36	33.000 29.000
37	2.000 -18.000
38	15.000 -5.000
39	29.000 -25.000
40	-25.000 -34.000
41	-20.000 -23.000
42	-9.000 -30.000
43	-25.000 24.000
44	0.000 -25.000
45	9.000 -30.000
46	2.000 -1.000
47	-5.000 -8.000
48	-5.000 15.000
49	18.000 -12.000
50	26.000 -3.000
51	0 0
DEMAND_SECTION
1 0 0 0 0 0
2 30 30 30 30 -1
3 -1 16 16 16 16
4 9 9 9 -1 9
5 -1 21 21 -1 21
6 15 15 15 -1 15
7 -1 19 19 19 19
8 23 23 23 -1 -1
9 11 -1 11 11 11
10 5 5 -1 5 -1
11 19 -1 19 19 -1
12 29 -1 -1 -1 29
13 -1 23 23 23 -1
14 -1 21 21 -1 21
15 10 -1 10 -1 10
16 -1 -1 15 15 15
17 3 3 3 3 -1
18 41 41 41 -1 -1
19 9 9 -1 9 9
20 28 -1 28 28 -1
21 8 -1 8 8 8
22 8 8 8 8 -1
23 -1 16 16 -1 16
24 10 10 10 10 10
25 28 28 28 -1 28
26 7 -1 7 7 7
27 -1 15 15 15 -1
28 -1 -1 14 14 14
29 6 -1 6 6 -1
30 -1 19 19 19 -1
31 -1 -1 11 11 11
32 12 12 12 12 12
33 23 -1 -1 23 23
34 -1 -1 26 -1 -1
35 17 -1 17 17 17
36 -1 6 6 6 -1
37 9 -1 9 -1 9
38 15 15 -1 15 -1
39 -1 14 14 14 14
40 -1 -1 7 -1 7
41 27 27 -1 -1 -1
42 13 13 13 13 -1
43 11 -1 -1 11 -1
44 16 16 16 16 16
45 -1 10 -1 10 10
46 -1 5 5 5 -1
47 -1 -1 25 25 -1
48 -1 17 -1 17 17
49 -1 -1 -1 18 -1
50 10 -1 10 10 10
51 5 5 5 5 5 5
SVC_TIME_SECTION
1	0.000000	0.000000	0.000000	0.000000	0.000000	
2	2.000000	2.000000	1.000000	0.500000	0.000000	
3	0.000000	0.000000	0.000000	0.000000	0.000000	
4	0.000000	0.000000	0.000000	0.000000	0.000000	
5	0.000000	0.000000	0.000000	0.000000	0.000000	
6	0.000000	0.000000	0.000000	0.000000	0.000000	
7	0.000000	0.000000	0.000000	0.000000	0.000000	
8	0.000000	0.000000	0.000000	0.000000	0.000000	
9	0.000000	0.000000	0.000000	0.000000	0.000000	
10	0.000000	0.000000	0.000000	0.000000	0.000000	
11	0.000000	0.000000	0.000000	0.000000	0.000000	
12	0.000000	0.000000	0.000000	0.000000	0.000000	
13	0.000000	0.000000	0.000000	0.000000	0.000000	
14	0.000000	0.000000	0.000000	0.000000	0.000000	
15	0.000000	0.000000	0.000000	0.000000	0.000000	
16	0.000000	0.000000	0.000000	0.000000	0.000000	
17	0.000000	0.000000	0.000000	0.000000	0.000000	
18	0.000000	0.000000	0.000000	0.000000	0.000000	
19	0.000000	0.000000	0.000000	0.000000	0.000000	
20	0.000000	0.000000	0.000000	0.000000	0.000000	
21	0.000000	0.000000	0.000000	0.000000	0.000000	
22	0.000000	0.000000	0.000000	0.000000	0.000000	
23	0.000000	0.000000	0.000000	0.000000	0.000000	
24	0.000000	0.000000	0.000000	0.000000	0.000000	
25	0.000000	0.000000	0.000000	0.000000	0.000000	
26	0.000000	0.000000	0.000000	0.000000	0.000000	
27	0.000000	0.000000	0.000000	0.000000	0.000000	
28	0.000000	0.000000	0.000000	0.000000	0.000000	
29	0.000000	0.000000	0.000000	0.000000	0.000000	
30	0.000000	0.000000	0.000000	0.000000	0.000000	
31	0.000000	0.000000	0.000000	0.000000	0.000000	
32	0.000000	0.000000	0.000000	0.000000	0.000000	
33	0.000000	0.000000	0.000000	0.000000	0.000000	
34	0.000000	0.000000	0.000000	0.000000	0.000000	
35	0.000000	0.000000	0.000000	0.000000	0.000000	
36	0.000000	0.000000	0.000000	0.000000	0.000000	
37	0.000000	0.000000	0.000000	0.000000	0.000000	
38	0.000000	0.000000	0.000000	0.000000	0.000000	
39	0.000000	0.000000	0.000000	0.000000	0.000000	
40	0.000000	0.000000	0.000000	0.000000	0.000000	
41	0.000000	0.000000	0.000000	0.000000	0.000000	
42	0.000000	0.000000	0.000000	0.000000	0.000000	
43	0.000000	0.000000	0.000000	0.000000	0.000000	
44	0.000000	0.000000	0.000000	0.000000	0.000000	
45	0.000000	0.000000	0.000000	0.000000	0.000000	
46	0.000000	0.000000	0.000000	0.000000	0.000000	
47	0.000000	0.000000	0.000000	0.000000	0.000000	
48	0.000000	0.000000	0.000000	0.000000	0.000000	
49	0.000000	0.000000	0.000000	0.000000	0.000000	
50	0.000000	0.000000	0.000000	0.000000	0.000000	
51	0.000000	0.000000	0.000000	0.000000	0.000000	
DEPOT_SECTION
1
-1
EOF

